Minimize
  - 4 y_0 - 9 y_1 - 11 y_2 - 9 y_3 - 12 y_4 - 10 y_5 - 5 y_6 - 10 y_7
   - 7 y_8 - 8 y_9 - 9 y_10 - 9 y_11 - 7 y_12 - 9 y_13 - 7 y_14 - 9 y_15
   - 3 y_16 - 10 y_17 - 5 y_18 - 9 y_19 - 8 y_20 - 6 y_21 - 14 y_22
   - 2 y_23 - 9 y_24 - 9 y_25 - 4 y_26 - 4 y_27 - 9 y_28 - 4 y_29 - 7 y_30
   - 2 y_31 - 7 y_32 - 5 y_33 - 6 y_34 - 10 y_35 - 9 y_36 - 3 y_37
   - 10 y_38 - 4 y_39 - 8 y_40 - 11 y_41 - 5 y_42 - 8 y_43 - 8 y_44
   - 10 y_45 - 11 y_46 - 9 y_47 - 8 y_48 - 2 y_49 - 10 y_50 - 6 y_51
   - 8 y_52 - 8 y_53 - 10 y_54 - 10 y_55 - 6 y_56 - 5 y_57 - 6 y_58
   - 7 y_59 - 10 y_60 - 7 y_61 - 10 y_62 - 3 y_63 - 11 y_64 - 3 y_65
   - 4 y_66 - 8 y_67 - 9 y_68 - 3 y_69 - 13 y_71 - 9 y_72 - 8 y_73 - 5 y_74
   - 6 y_75 - 9 y_76 - 5 y_77 - 6 y_78 - 5 y_79 - 2 y_80 - 8 y_81 - 2 y_82
   - 8 y_83 - 4 y_84 - 5 y_85 - 2 y_86 - 6 y_87 - 8 y_88 - 4 y_89 - 10 y_90
   - 3 y_91 - 7 y_92 - 12 y_93 - 10 y_94 - 7 y_95 - 4 y_96 - 10 y_97
   - 9 y_98 - 9 y_99 + 714 Constant
Subject To
 c_0: y_36 = 1
 c_1_0: y_0 + y_16 + y_29 + y_30 + y_37 + y_39 + y_42 + y_49 + y_51 + y_69
   + y_79 + y_80 + y_82 + y_85 + y_86 + y_89 >= 1
 c_1_1: y_1 + y_2 + y_4 + y_5 + y_9 + y_11 + y_28 + y_33 + y_47 + y_48
   + y_54 + y_59 + y_64 + y_93 + y_95 >= 1
 c_1_2: y_1 + y_2 + y_4 + y_5 + y_11 + y_47 + y_52 + y_59 + y_64 + y_71
   + y_88 + y_93 >= 1
 c_1_3: y_3 + y_24 + y_40 + y_43 + y_51 + y_60 + y_67 + y_72 + y_76 + y_79
   + y_99 >= 1
 c_1_4: y_1 + y_2 + y_4 + y_5 + y_11 + y_47 + y_64 + y_71 + y_93 >= 1
 c_1_5: y_1 + y_2 + y_4 + y_5 + y_9 + y_11 + y_28 + y_47 + y_54 + y_64
   + y_71 + y_93 >= 1
 c_1_6: y_6 + y_14 + y_23 + y_27 + y_31 + y_33 + y_52 + y_57 + y_59 + y_65
   + y_84 + y_88 + y_91 >= 1
 c_1_7: y_7 + y_19 + y_25 + y_32 + y_34 + y_61 + y_78 + y_98 >= 1
 c_1_8: y_8 + y_18 + y_26 + y_36 + y_38 + y_50 + y_53 + y_62 + y_74 + y_75
   + y_77 + y_83 + y_96 >= 1
 c_1_9: y_1 + y_5 + y_9 + y_11 + y_20 + y_28 + y_33 + y_44 + y_47 + y_48
   + y_54 + y_58 + y_81 + y_87 + y_95 >= 1
 c_1_10: y_10 + y_13 + y_14 + y_35 + y_45 + y_46 + y_52 + y_59 + y_88 >= 1
 c_1_11: y_1 + y_2 + y_4 + y_5 + y_9 + y_11 + y_28 + y_47 + y_59 + y_64
   + y_71 + y_88 + y_93 >= 1
 c_1_12: y_12 + y_18 + y_19 + y_32 + y_34 + y_56 + y_61 + y_63 + y_66
   + y_75 + y_78 + y_83 + y_90 + y_96 >= 1
 c_1_13: y_10 + y_13 + y_14 + y_35 + y_45 + y_46 + y_52 + y_59 + y_88 >= 1
 c_1_14: y_6 + y_10 + y_13 + y_14 + y_21 + y_27 + y_35 + y_45 + y_46 + y_52
   + y_57 + y_59 + y_84 + y_88 >= 1
 c_1_15: y_15 + y_20 + y_24 + y_30 + y_55 + y_68 + y_73 + y_81 + y_92
   + y_94 + y_97 >= 1
 c_1_16: y_0 + y_16 + y_32 + y_34 + y_39 + y_42 + y_49 + y_56 + y_61 + y_63
   + y_66 + y_69 + y_70 + y_78 + y_79 + y_80 + y_82 + y_85 + y_86 + y_96
   >= 1
 c_1_17: y_17 + y_35 + y_46 >= 1
 c_1_18: y_8 + y_12 + y_18 + y_26 + y_56 + y_63 + y_66 + y_74 + y_75 + y_77
   + y_83 + y_96 >= 1
 c_1_19: y_7 + y_12 + y_19 + y_34 + y_56 + y_61 + y_75 + y_78 + y_83 + y_90
   >= 1
 c_1_20: y_9 + y_15 + y_20 + y_44 + y_48 + y_54 + y_58 + y_73 + y_81 + y_87
   + y_92 + y_94 + y_95 >= 1
 c_1_21: y_14 + y_21 + y_26 + y_27 + y_53 + y_74 + y_77 + y_84 + y_91 >= 1
 c_1_22: y_22 >= 1
 c_1_23: y_6 + y_23 + y_26 + y_27 + y_29 + y_31 + y_33 + y_37 + y_49 + y_57
   + y_65 + y_70 + y_80 + y_84 + y_86 + y_91 >= 1
 c_1_24: y_3 + y_15 + y_24 + y_30 + y_43 + y_51 + y_55 + y_60 + y_67 + y_68
   + y_72 + y_76 + y_94 + y_97 >= 1
 c_1_25: y_7 + y_25 + y_32 + y_34 + y_40 + y_61 + y_78 + y_85 + y_98 >= 1
 c_1_26: y_8 + y_18 + y_21 + y_23 + y_26 + y_27 + y_31 + y_63 + y_70 + y_74
   + y_77 + y_91 + y_96 >= 1
 c_1_27: y_6 + y_14 + y_21 + y_23 + y_26 + y_27 + y_31 + y_57 + y_70 + y_74
   + y_77 + y_84 + y_91 >= 1
 c_1_28: y_1 + y_5 + y_9 + y_11 + y_28 + y_33 + y_44 + y_47 + y_48 + y_54
   + y_58 + y_87 + y_95 >= 1
 c_1_29: y_0 + y_23 + y_29 + y_31 + y_33 + y_37 + y_49 + y_58 + y_65 + y_70
   + y_80 + y_81 + y_87 + y_89 + y_92 + y_95 >= 1
 c_1_30: y_0 + y_15 + y_24 + y_30 + y_43 + y_51 + y_55 + y_60 + y_67 + y_68
   + y_72 + y_73 + y_76 + y_79 + y_89 + y_92 + y_94 + y_97 >= 1
 c_1_31: y_6 + y_23 + y_26 + y_27 + y_29 + y_31 + y_33 + y_37 + y_49 + y_57
   + y_65 + y_70 + y_80 + y_82 + y_84 + y_86 + y_91 >= 1
 c_1_32: y_7 + y_12 + y_16 + y_25 + y_32 + y_34 + y_40 + y_42 + y_56 + y_61
   + y_66 + y_69 + y_78 + y_85 + y_98 >= 1
 c_1_33: y_1 + y_6 + y_9 + y_23 + y_28 + y_29 + y_31 + y_33 + y_37 + y_47
   + y_48 + y_57 + y_58 + y_59 + y_65 + y_84 + y_87 + y_88 + y_91 + y_95
   >= 1
 c_1_34: y_7 + y_12 + y_16 + y_19 + y_25 + y_32 + y_34 + y_56 + y_61 + y_63
   + y_66 + y_69 + y_75 + y_78 + y_85 + y_96 >= 1
 c_1_35: y_10 + y_13 + y_14 + y_17 + y_35 + y_45 + y_46 + y_52 >= 1
 c_1_36: y_8 + y_36 + y_38 + y_41 + y_50 + y_53 + y_62 + y_74 + y_77 >= 1
 c_1_37: y_0 + y_23 + y_29 + y_31 + y_33 + y_37 + y_39 + y_49 + y_58 + y_65
   + y_70 + y_80 + y_82 + y_86 + y_87 + y_89 >= 1
 c_1_38: y_8 + y_36 + y_38 + y_41 + y_50 + y_53 + y_62 >= 1
 c_1_39: y_0 + y_16 + y_37 + y_39 + y_42 + y_49 + y_51 + y_63 + y_66 + y_69
   + y_70 + y_79 + y_80 + y_82 + y_85 + y_86 + y_89 >= 1
 c_1_40: y_3 + y_25 + y_32 + y_40 + y_42 + y_61 + y_85 + y_98 + y_99 >= 1
 c_1_41: y_36 + y_38 + y_41 + y_50 + y_53 + y_62 >= 1
 c_1_42: y_0 + y_16 + y_32 + y_39 + y_40 + y_42 + y_49 + y_51 + y_63 + y_66
   + y_67 + y_69 + y_79 + y_80 + y_82 + y_85 + y_86 + y_89 >= 1
 c_1_43: y_3 + y_24 + y_30 + y_43 + y_51 + y_55 + y_60 + y_67 + y_68 + y_72
   + y_76 + y_79 + y_97 >= 1
 c_1_44: y_9 + y_20 + y_28 + y_44 + y_48 + y_54 + y_58 + y_73 + y_81 + y_87
   + y_92 + y_95 >= 1
 c_1_45: y_10 + y_13 + y_14 + y_35 + y_45 + y_46 + y_52 + y_59 + y_88 >= 1
 c_1_46: y_10 + y_13 + y_14 + y_17 + y_35 + y_45 + y_46 >= 1
 c_1_47: y_1 + y_2 + y_4 + y_5 + y_9 + y_11 + y_28 + y_33 + y_47 + y_48
   + y_54 + y_64 + y_87 + y_93 + y_95 >= 1
 c_1_48: y_1 + y_9 + y_20 + y_28 + y_33 + y_44 + y_47 + y_48 + y_54 + y_58
   + y_81 + y_87 + y_95 >= 1
 c_1_49: y_0 + y_16 + y_23 + y_29 + y_31 + y_37 + y_39 + y_42 + y_49 + y_63
   + y_65 + y_69 + y_70 + y_79 + y_80 + y_82 + y_86 + y_89 >= 1
 c_1_50: y_8 + y_36 + y_38 + y_41 + y_50 + y_53 + y_62 >= 1
 c_1_51: y_0 + y_3 + y_24 + y_30 + y_39 + y_42 + y_43 + y_51 + y_55 + y_60
   + y_67 + y_68 + y_72 + y_76 + y_79 + y_89 + y_92 + y_97 >= 1
 c_1_52: y_2 + y_6 + y_10 + y_13 + y_14 + y_35 + y_45 + y_52 + y_57 + y_59
   + y_88 >= 1
 c_1_53: y_8 + y_21 + y_36 + y_38 + y_41 + y_50 + y_53 + y_74 + y_77 >= 1
 c_1_54: y_1 + y_5 + y_9 + y_20 + y_28 + y_44 + y_47 + y_48 + y_54 + y_58
   + y_81 + y_95 >= 1
 c_1_55: y_15 + y_24 + y_30 + y_43 + y_51 + y_55 + y_60 + y_68 + y_73
   + y_92 + y_94 + y_97 >= 1
 c_1_56: y_12 + y_16 + y_18 + y_19 + y_32 + y_34 + y_56 + y_61 + y_63
   + y_66 + y_69 + y_75 + y_78 + y_83 + y_90 + y_96 >= 1
 c_1_57: y_6 + y_14 + y_23 + y_27 + y_31 + y_33 + y_52 + y_57 + y_59 + y_65
   + y_84 + y_88 + y_91 >= 1
 c_1_58: y_9 + y_20 + y_28 + y_29 + y_33 + y_37 + y_44 + y_48 + y_54 + y_58
   + y_65 + y_73 + y_81 + y_87 + y_92 + y_95 >= 1
 c_1_59: y_1 + y_2 + y_6 + y_10 + y_11 + y_13 + y_14 + y_33 + y_45 + y_52
   + y_57 + y_59 + y_84 + y_88 >= 1
 c_1_60: y_3 + y_24 + y_30 + y_43 + y_51 + y_55 + y_60 + y_67 + y_68 + y_72
   + y_76 + y_94 + y_97 >= 1
 c_1_61: y_7 + y_12 + y_16 + y_19 + y_25 + y_32 + y_34 + y_40 + y_56 + y_61
   + y_66 + y_69 + y_78 + y_85 + y_98 >= 1
 c_1_62: y_8 + y_36 + y_38 + y_41 + y_50 + y_62 >= 1
 c_1_63: y_12 + y_16 + y_18 + y_26 + y_34 + y_39 + y_42 + y_49 + y_56
   + y_63 + y_66 + y_69 + y_70 + y_78 + y_80 + y_82 + y_85 + y_86 + y_96
   >= 1
 c_1_64: y_1 + y_2 + y_4 + y_5 + y_11 + y_47 + y_64 + y_71 + y_93 >= 1
 c_1_65: y_6 + y_23 + y_29 + y_31 + y_33 + y_37 + y_49 + y_57 + y_58 + y_65
   + y_70 + y_80 + y_84 + y_87 + y_89 + y_95 >= 1
 c_1_66: y_12 + y_16 + y_18 + y_32 + y_34 + y_39 + y_42 + y_56 + y_61
   + y_63 + y_66 + y_69 + y_70 + y_75 + y_78 + y_82 + y_85 + y_86 + y_96
   >= 1
 c_1_67: y_3 + y_24 + y_30 + y_42 + y_43 + y_51 + y_60 + y_67 + y_72 + y_76
   + y_79 + y_97 + y_99 >= 1
 c_1_68: y_15 + y_24 + y_30 + y_43 + y_51 + y_55 + y_60 + y_68 + y_73
   + y_76 + y_92 + y_94 + y_97 >= 1
 c_1_69: y_0 + y_16 + y_32 + y_34 + y_39 + y_42 + y_49 + y_56 + y_61 + y_63
   + y_66 + y_69 + y_70 + y_78 + y_79 + y_80 + y_82 + y_85 + y_86 + y_96
   >= 1
 c_1_70: y_16 + y_23 + y_26 + y_27 + y_29 + y_31 + y_37 + y_39 + y_49
   + y_63 + y_65 + y_66 + y_69 + y_70 + y_80 + y_82 + y_84 + y_86 + y_91
   >= 1
 c_1_71: y_2 + y_4 + y_5 + y_11 + y_64 + y_71 + y_93 >= 1
 c_1_72: y_3 + y_24 + y_30 + y_43 + y_51 + y_60 + y_67 + y_72 + y_76 + y_97
   + y_99 >= 1
 c_1_73: y_15 + y_20 + y_30 + y_44 + y_55 + y_58 + y_68 + y_73 + y_81
   + y_92 + y_94 >= 1
 c_1_74: y_8 + y_18 + y_21 + y_26 + y_27 + y_36 + y_53 + y_74 + y_77 + y_91
   + y_96 >= 1
 c_1_75: y_8 + y_12 + y_18 + y_19 + y_34 + y_56 + y_66 + y_75 + y_78 + y_83
   + y_90 + y_96 >= 1
 c_1_76: y_3 + y_24 + y_30 + y_43 + y_51 + y_60 + y_67 + y_68 + y_72 + y_76
   + y_79 + y_97 + y_99 >= 1
 c_1_77: y_8 + y_18 + y_21 + y_26 + y_27 + y_36 + y_53 + y_74 + y_77 + y_91
   + y_96 >= 1
 c_1_78: y_7 + y_12 + y_16 + y_19 + y_25 + y_32 + y_34 + y_56 + y_61 + y_63
   + y_66 + y_69 + y_75 + y_78 + y_85 >= 1
 c_1_79: y_0 + y_3 + y_16 + y_30 + y_39 + y_42 + y_43 + y_49 + y_51 + y_67
   + y_69 + y_76 + y_79 + y_80 + y_82 + y_85 + y_86 + y_89 >= 1
 c_1_80: y_0 + y_16 + y_23 + y_29 + y_31 + y_37 + y_39 + y_42 + y_49 + y_63
   + y_65 + y_69 + y_70 + y_79 + y_80 + y_82 + y_86 + y_89 >= 1
 c_1_81: y_9 + y_15 + y_20 + y_29 + y_44 + y_48 + y_54 + y_58 + y_73 + y_81
   + y_87 + y_92 + y_95 >= 1
 c_1_82: y_0 + y_16 + y_31 + y_37 + y_39 + y_42 + y_49 + y_63 + y_66 + y_69
   + y_70 + y_79 + y_80 + y_82 + y_85 + y_86 + y_89 >= 1
 c_1_83: y_8 + y_12 + y_18 + y_19 + y_56 + y_75 + y_83 + y_90 + y_96 >= 1
 c_1_84: y_6 + y_14 + y_21 + y_23 + y_27 + y_31 + y_33 + y_57 + y_59 + y_65
   + y_70 + y_84 + y_88 + y_91 >= 1
 c_1_85: y_0 + y_16 + y_25 + y_32 + y_34 + y_39 + y_40 + y_42 + y_61 + y_63
   + y_66 + y_69 + y_78 + y_79 + y_82 + y_85 + y_86 >= 1
 c_1_86: y_0 + y_16 + y_23 + y_31 + y_37 + y_39 + y_42 + y_49 + y_63 + y_66
   + y_69 + y_70 + y_79 + y_80 + y_82 + y_85 + y_86 + y_89 >= 1
 c_1_87: y_9 + y_20 + y_28 + y_29 + y_33 + y_37 + y_44 + y_47 + y_48 + y_58
   + y_65 + y_81 + y_87 + y_92 + y_95 >= 1
 c_1_88: y_2 + y_6 + y_10 + y_11 + y_13 + y_14 + y_33 + y_45 + y_52 + y_57
   + y_59 + y_84 + y_88 >= 1
 c_1_89: y_0 + y_29 + y_30 + y_37 + y_39 + y_42 + y_49 + y_51 + y_65 + y_79
   + y_80 + y_82 + y_86 + y_89 + y_92 >= 1
 c_1_90: y_12 + y_19 + y_56 + y_75 + y_83 + y_90 >= 1
 c_1_91: y_6 + y_21 + y_23 + y_26 + y_27 + y_31 + y_33 + y_57 + y_70 + y_74
   + y_77 + y_84 + y_91 >= 1
 c_1_92: y_15 + y_20 + y_29 + y_30 + y_44 + y_51 + y_55 + y_58 + y_68
   + y_73 + y_81 + y_87 + y_89 + y_92 + y_94 + y_95 >= 1
 c_1_93: y_1 + y_2 + y_4 + y_5 + y_11 + y_47 + y_64 + y_71 + y_93 >= 1
 c_1_94: y_15 + y_20 + y_24 + y_30 + y_55 + y_60 + y_68 + y_73 + y_92
   + y_94 + y_97 >= 1
 c_1_95: y_1 + y_9 + y_20 + y_28 + y_29 + y_33 + y_44 + y_47 + y_48 + y_54
   + y_58 + y_65 + y_81 + y_87 + y_92 + y_95 >= 1
 c_1_96: y_8 + y_12 + y_16 + y_18 + y_26 + y_34 + y_56 + y_63 + y_66 + y_69
   + y_74 + y_75 + y_77 + y_83 + y_96 >= 1
 c_1_97: y_15 + y_24 + y_30 + y_43 + y_51 + y_55 + y_60 + y_67 + y_68
   + y_72 + y_76 + y_94 + y_97 >= 1
 c_1_98: y_7 + y_25 + y_32 + y_40 + y_61 + y_98 >= 1
 c_1_99: y_3 + y_40 + y_67 + y_72 + y_76 + y_99 >= 1
Bounds
 Constant = 1
Binaries
 y_0 y_1 y_2 y_3 y_4 y_5 y_6 y_7 y_8 y_9 y_10 y_11 y_12 y_13 y_14 y_15 y_16
 y_17 y_18 y_19 y_20 y_21 y_22 y_23 y_24 y_25 y_26 y_27 y_28 y_29 y_30 y_31
 y_32 y_33 y_34 y_35 y_36 y_37 y_38 y_39 y_40 y_41 y_42 y_43 y_44 y_45 y_46
 y_47 y_48 y_49 y_50 y_51 y_52 y_53 y_54 y_55 y_56 y_57 y_58 y_59 y_60 y_61
 y_62 y_63 y_64 y_65 y_66 y_67 y_68 y_69 y_70 y_71 y_72 y_73 y_74 y_75 y_76
 y_77 y_78 y_79 y_80 y_81 y_82 y_83 y_84 y_85 y_86 y_87 y_88 y_89 y_90 y_91
 y_92 y_93 y_94 y_95 y_96 y_97 y_98 y_99
End
